5 5
4 3 4 13 2 7 1 2 4 5 11 1 7 4 4 3 3 4 5 18 1 12 2 12 3 15 3 5 17 4 6 1 17
4 5 2 19 1 3 4 3 3 6 5 7 3 4 9 2 6 5 6 4 2 12 5 2 3 18 4 3 5 4 7 1 20 3 17 5 4 2 2
8 3 1 3 3 13 4 16 1 1 7 3 1 11 4 15 5 4 2 5 19 4 5 1 3 7 3 1 4 3 14 4 19 1 2 18 3 3 2 4 6 1 15
7 1 4 4 2 1 19 3 17 3 3 3 5 15 4 18 3 2 5 1 12 4 10 4 2 3 1 3 5 9 3 11 5 2 13 5 14 1 7 4 12 3 13 2 2 3 1 20
7 4 1 12 4 11 5 6 3 9 1 4 19 5 1 7 2 19 3 7 4 16 5 12 2 1 13 2 5 1 3 9 3 1 5 4 14 2 11 3 4 9 1 10 3 2